25748,
24212,
23628,
22924,
21092,
21092,
21092,
20665,
20550,
19929,
19730,
18522,
18377,
18377,
18217,
18065,
17698,
17698,
17591,
17315,
17133,
16790,
16347,
16110,
15554,
15554,
15109,
15109,
14887,
14823,
14558,
14550,
14230,
14148,
14032,
13617,
13617,
13432,
13372,
13327,
13197,
13183,
13037,
12932,
12857,
12721,
12661,
12571,
12503,
12393,
12393,
12298,
12261,
12008,
11869,
11869,
11869,
11687,
11674,
11545,
11545,
11545,
11545,
11545,
11448,
11409,
11409,
11409,
11382,
11236,
11236,
11236,
11214,
11087,
11072,
10840,
10840,
10840,
10840,
10840,
10763,
10691,
10636,
10636,
10636,
10498,
10498,
10498,
10452,
10452,
10279,
10279,
10242,
10242,
10234,
10055,
9916,
9916,
9857,
9857,
9775,
9775,
9775,
9764,
9700,
9700,
9653,
9642,
9642,
9642,
9642,
9642,
9642,
9624,
9624,
9624,
9624,
9624,
9338,
9338,
9338,
9338,
9338,
9338,
9338,
9338,
9312,
9312,
9312,
9312,
9285,
9285,
9285,
9285,
9285,
9285,
9285,
9245,
9245,
9245,
9245,
9245,
9245,
9245,
9245,
9245,
9245,
9245,
9245,
9245,
9245,
9231,
9231,
9231,
9231,
9182,
9182,
9182,
9182,
9182,
9154,
9154,
9154,
9154,
9154,
9154,
9154,
9154,
9154,
9154,
9154,
9154,
9154,
9154,
9154,
9154,
9154,
9154,
9154,
9154,
9154,
9154,
9154,
9154,
9154,
9154,
9154,
9154,
9154,
9154,
9154,
9154,
9092,
9092,
9092,
9092,
9092,
9092,
9092,
9092,
9092,
9092,
9092,
9092,
9092,
9092,
9092,
9092,
9092,
9092,
9092,
9092,
9092,
9092,
9092,
9092,
9092,
9092,
9092,
9092,
9092,
9092,
9092,
9092,
9092,
9092,
9092,
9092,
9092,
9092,
9092,
9092,
9092,
9092,
9092,
9092,
9092,
9092,
9092,
9092,
9092,
9092,
9092,
9092,
9092,
9092,
9092,
9092,
9092,
9065,
9065,
9065,
9065,
9065,
9065,
9065,
9065,
9065,
9065,
9065,
9065,
9065,
9065,
9065,
9065,
9065,
9065,
9065,
9065,
9065,
9065,
9065,
9065,
9065,
9065,
9065,
9065,
9065,
9065,
9065,
9065,
9065,
9065,
9065,
9065,
9065,
9065,
9065,
9065,
9065,
9065,
9065,
9065,
9065,
9065,
9065,
9065,
9065,
9065,
9065,
9065,
9065,
9065,
9065,
9065,
9065,
9065,
9065,
9065,
9065,
9065,
9065,
9065,
9065,
9065,
9065,
9065,
9065,
9065,
9065,
9065,
9065,
9065,
9065,
9065,
9065,
9065,
9065,
9065,
9065,
9065,
9065,
9065,
9065,
9065,
9065,
9065,
9065,
9065,
9065,
9065,
9065,
9065,
9065,
9065,
9065,
9065,
9065,
9065,
9065,
9065,
9065,
9065,
9065,
9065,
9065,
9065,
9065,
9065,
9065,
9065,
9065,
9065,
9065,
9065,
9065,
9065,
9065,
9065,
9065,
9065,
9065,
9065,
9065,
9065,
9065,
9065,
9065,
9065,
9065,
9065,
9065,
9065,
9065,
9065,
9065,
9065,
9065,
9065,
9065,
9065,
9065,
9065,
9065,
9065,
9065,
9065,
9065,
9065,
9065,
9065,
9065,
9065,
9065,
9065,
9065,
9065,
9065,
9065,
9065,
9065,
9065,
9065,
9065,
9065,
9065,
9065,
9065,
9065,
9065,
9065,
9065,
9065,
9065,
9065,
9065,
9065,
9065,
9065,
9065,
9065,
9065,
9065,
9065,
9065,
9065,
9065,
9065,
9065,
9065,
9065,
9065,
9065,
9065,
9065,
9065,
9065,
9065,
9065,
9065,
9065,
9065,
9065,
9065,
9065,
9065,
9065,
9065,
9065,
9065,
9065,
9065,
9065,
9065,
9065,
9065,
9065,
9065,
9065,
9065,
9065,
9065,
9065,
9065,
9065,
9065,
9065,
9065,
9065,
9065,
9065,
9065,
9065,
9065,
9065,
9065,
9065,
9065,
9065,
9065,
9065,
9065,
9065,
9065,
9065,
9065,
9065,
9065,
9065,
9065,
9065,
9065,
9065,
9065,
9065,
9065,
9065,
9065,
9065,
9065,
9065,
9065,
9065,
9065,
9065,
9065,
9065,
9065,
9065,
9065,
9065,
9065,
9065,
9065,
9065,
9065,
9065,
9065,
9065,
9065,
9065,
9065,
9065,
9065,
9065,
9065,
9065,
9065,
9065,
9065,
9065,
9065,
9065,
9065,
9065,
9065,
9065,
9065,
9065,
9065,
9065,
9065,
9065,
9065,
9065,
9065,
9065,
9065,
9065,
9065,
9065,
9065,
9065,
9065,
9065,
9065,
9065,
9065,
9065,
9065,
9065,
9065,
9065,
9065,
9065,
9065,
9065,
9065,
9065,
9065,
9065,
9065,
9065,
9065,
9065,
9065,
9065,
9065,
9065,
9065,
9065,
9065,
9065,
9065,
9065,
9065,
9065,
9065,
9065,
9065,
9065,
9065,
9065,
9065,
9065,
9065,
9065,
9065,
9065,
9065,
9065,
9065,
9065,
9065,
9065,
9065,
9065,
9065,
9065,
9065,
9065,
9065,
9065,
9065,
9065,
9065,
9065,
9065,
9065,
9065,
9065,
9065,
9065,
9065,
9065,
9065,
9065,
9065,
9065,
9065,
9065,
9065,
9065,
9065,
9065,
9065,
9065,
9065,
9065,
9065,
9065,
9065,
9065,
9065,
9065,
9065,
9065,
9065,
9065,
9065,
9065,
9065,
9065,
9065,
9065,
9065,
9065,
9065,
9065,
9065,
9065,
9065,
9065,
9065,
9065,
9065,
9065,
9065,
9065,
9065,
9065,
9065,
9065,
9065,
9065,
9065,
9065,
9065,
9065,
9065,
9065,
9065,
9065,
9065,
9065,
9065,
9065,
9065,
9065,
9065,
9065,
9065,
9065,
9065,
9065,
9065,
9065,
9065,
9065,
9065,
9065,
9065,
9065,
9065,
9065,
9065,
9065,
9065,
9065,
9065,
9065,
9065,
9065,
9065,
9065,
9065,
9065,
9065,
9065,
9065,
9065,
9065,
9065,
9065,
9065,
9065,
9065,
9065,
9065,
9065,
9065,
9065,
9065,
9065,
9065,
9065,
9065,
9065,
9065,
9065,
9065,
9065,
9065,
9065,
9065,
9065,
9065,
9065,
9065,
9065,
9065,
9065,
9065,
9065,
9065,
9065,
9065,
9065,
9065,
9065,
9065,
9065,
9065,
9065,
9065,
9065,
9065,
9065,
9065,
9065,
9065,
9065,
9065,
9065,
9065,
9065,
9065,
9065,
9065,
9065,
9065,
9065,
9065,
9065,
9065,
9065,
9065,
9065,
9065,
9065,
9065,
9065,
9065,
9065,
9065,
9065,
9065,
9065,
9065,
9065,
9065,
9065,
9065,
9065,
9065,
9065,
9065,
9065,
9065,
9065,
9065,
9065,
9065,
9065,
9065,
9065,
9065,
9065,
9065,
9065,
9065,
9065,
9065,
9065,
9065,
9065,
9065,
9065,
9065,
9065,
9065,
9065,
9065,
9065,
9065,
9065,
9065,
9065,
9065,
9065,
9065,
9065,
9065,
9065,
9065,
9065,
9065,
9065,
9065,
9065,
9065,
9065,
9065,
9065,
9065,
9065,
9065,
9065,
9065,
9065,
9065,
9065,
9065,
9065,
9065,
9065,
9065,
9065,
9065,
9065,
9065,
9065,
9065,
9065,
9065,
9065,
9065,
9065,
9065,
9065,
9065,
9065,
9065,
9065,
9065,
9065,
9065,
9065,
9065,
9065,
9065,
9065,
9065,
9065,
9065,
9065,
9065,
9065,
9065,
9065,
9065,
9065,
9065,
9065,
9065,
9065,
9065,
9065,
9065,
9065,
9065,
9065,
9065,
9065,
9065,
9065,
9065,
9065,
9065,
9065,
9065,
9065,
9065,
9065,
9065,
9065,
9065,
9065,
9065,
9065,
9065,
9065,
9065,
9065,
9065,
9065,
9065,
9065,
9065,
9065,
9065,
9065,
9065,
9065,
9065,
9065,
9065,
9065,
9065,
9065,
9065,
9065,
9065,
9065,
9065,
9065,
9065,
9065,
9065,
9065,
9065,
9065,
9065,
9065,
9065,
9065,
9065,
9065,
9065,
9065,
9065,
9065,
9065,
9065,
9065,
9065,
9065,
9065,
9065,
9065,
9065,
9065,
9065,
9065,
9065,
9065,
9065,
9065,
9065,
9065,
9065,
9065,
9065,
9065,
9065,
9065,
9065,
9065,
9065,
9065,
9065,
9065,
9065,
9065,
9065,
9065,
9065,
9065,
9065,
9065,
9065,
9065,
9065,
9065,
9065,
9065,
9065,
9065,
9065,
9065,
9065,
9065,
9065,
9065,
9065,
9065,
9065,
9065,
9065,
9065,
9065,
9065,
9065,
9065,
9065,
9065,
9065,
9065,
9065,
9065,
9065,
9065,
9065,
9065,
9065,
9065,
9065,
9065,
9065,
9065,
9065,
9065,
9065,
9065,
9065,
9065,
9065,
9065,
9065,
9065,
9065,
9065,
9065,
9065,
9065,
9065,
9065,
9065,
9065,
9065,
9065,
9065,
9065,
9065,
9065,
9065,
9065,
9065,
9065,
9065,
9065,
9065,
9065,
9065,
9065,
9065,
9065,
9065,
9065,
9065,
9065,
9065,
9065,
9065,
9065,
9065,
9065,
9065,
9065,
9065,
9065,
9065,
9065,
9065,
9065,
9065,
9065,
9065,
9065,
9065,
9065,
9065,
9065,
9065,
9065,
9065,
9065,
9065,
9065,
9065,
9065,
9065,
9065,
9065,
9065,
9065,
9065,
9065,
9065,
9065,
9065,
9065,
9065,
9065,
9065,
9065,
9065,
9065,
9065,
9065,
9065,
9065,
9065,
9065,
9065,
9065,
9065,
9065,
9065,
9065,
9065,
9065,
9065,
9065,
9065,
9065,
9065,
9065,
9065,
9065,
9065,
9065,
9065,
9065,
9065,
9065,
9065,
9065,
9065,
9065,
9065,
9065,
9065,
9065,
9065,
9065,
9065,
9065,
9065,
9065,
9065,
9065,
9065,
9065,
9065,
9065,
9065,
9065,
9065,
9065,
9065,
9065,
9065,
9065,
9065,
9065,
9065,
9065,
9065,
9065,
9065,
9065,
9065,
9065,
9065,
9065,
9065,
9065,
9065,
9065,
9065,
9065,
9065,
9065,
9065,
9065,
9065,
9065,
9065,
9065,
9065,
9065,
9065,
9065,
9065,
9065,
9065,
9065,
9065,
9065,
9065,
9065,
9065,
9065,
9065,
9065,
9065,
9065,
9065,
9065,
9065,
9065,
9065,
9065,
9065,
9065,
9065,
9065,
9065,
9065,
9065,
9065,
9065,
9065,
9065,
9065,
9065,
9065,
9065,
9065,
9065,
9065,
9065,
9065,
9065,
9065,
9065,
9065,
9065,
9065,
9065,
9065,
9065,
9065,
9065,
9065,
9065,
9065,
9065,
9065,
9065,
9065,
9065,
9065,
9065,
9065,
9065,
9065,
9065,
9065,
9065,
9065,
9065,
9065,
9065,
9065,
9065,
9065,
9065,
9065,
9065,
9065,
9065,
9065,
9065,
9065,
9065,
9065,
9065,
9065,
9065,
9065,
9065,
9065,
9065,
9065,
9065,
9065,
9065,
9065,
9065,
9065,
9065,
9065,
9065,
9065,
9065,
9065,
9065,
9065,
9065,
9065,
9065,
9065,
9065,
9065,
9065,
9065,
9065,
9065,
9065,
9065,
9065,
9065,
9065,
9065,
9065,
9065,
9065,
9065,
9065,
9065,
9065,
9065,
9065,
9065,
9065,
9065,
9065,
9065,
9065,
9065,
9065,
9065,
9065,
9065,
9065,
9065,
9065,
9065,
9065,
9065,
9065,
9065,
9065,
9065,
9065,
9065,
9065,
9065,
9065,
9065,
9065,
9065,
9065,
9065,
9065,
9065,
9065,
9065,
9065,
9065,
9065,
9065,
9065,
9065,
9065,
9065,
9065,
9065,
9065,
9065,
9065,
9065,
9065,
9065,
9065,
9065,
9065,
9065,
9065,
9065,
9065,
9065,
9065,
9065,
9065,
9065,
9065,
9065,
9065,
9065,
9065,
9065,
9065,
9065,
9065,
9065,
9065,
9065,
9065,
9065,
9065,
9065,
9065,
9065,
9065,
9065,
9065,
9065,
9065,
9065,
9065,
9065,
9065,
9065,
9065,
9065,
9065,
9065,
9065,
9065,
9065,
9065,
9065,
9065,
9065,
9065,
9065,
9065,
9065,
9065,
9065,
9065,
9065,
9065,
9065,
9065,
9065,
9065,
9065,
9065,
9065,
9065,
9065,
9065,
9065,
9065,
9065,
9065,
9065,
9065,
9065,
9065,
9065,
9065,
9065,
9065,
9065,
9065,
9065,
1,
